32	0

0	1	2
8	1	3
4	1	4
10	1	5
9	2	6	8
4	1	7
7	1	9
9	1	9
8	1	10
5	2	11	12
9	2	13	14
2	2	13	14
9	1	15
1	1	15
10	1	16
2	1	17
9	1	18
9	1	19
3	1	20
9	1	21
7	1	22
7	2	23	24
2	1	25
1	2	25	27
4	2	26	28
9	1	29
10	1	29
6	1	29
9	1	30
8	1	31
6	1	32
0	0
